; benchmark generated from python API
(set-info :status unknown)
(declare-fun x_months () Int)
(declare-fun x_beta () Int)
(declare-fun y_months () Int)
(declare-fun y_beta () Int)
(assert
 (>= x_months (- 1202)))
(assert
 (<= x_months 1209))
(assert
 (>= x_beta 0))
(assert
 (let ((?x4055 (div (- (+ x_months (+ (* 2000 12) 3)) 1) 12)))
 (let ((?x11 (+ (* 2000 12) 3)))
 (let ((?x4068 (+ x_months ?x11)))
 (let ((?x4071 (- ?x4068 (* ?x4055 12))))
 (let ((?x3434 (ite (or (= ?x4071 4) (= ?x4071 6) (= ?x4071 9) (= ?x4071 11)) 30 31)))
 (let (($x3590 (or (and (= (mod ?x4055 4) 0) (and (distinct (mod ?x4055 100) 0) true)) (= (mod ?x4055 400) 0))))
 (< x_beta (ite (= ?x4071 2) (ite $x3590 29 28) ?x3434)))))))))
(assert
 (>= y_months (- 1202)))
(assert
 (<= y_months 1209))
(assert
 (>= y_beta 0))
(assert
 (let ((?x3935 (div (- (+ y_months (+ (* 2000 12) 3)) 1) 12)))
 (let ((?x11 (+ (* 2000 12) 3)))
 (let ((?x2573 (+ y_months ?x11)))
 (let ((?x2607 (- ?x2573 (* ?x3935 12))))
 (let ((?x2064 (ite (or (= ?x2607 4) (= ?x2607 6) (= ?x2607 9) (= ?x2607 11)) 30 31)))
 (let (($x1636 (or (and (= (mod ?x3935 4) 0) (and (distinct (mod ?x3935 100) 0) true)) (= (mod ?x3935 400) 0))))
 (< y_beta (ite (= ?x2607 2) (ite $x1636 29 28) ?x2064)))))))))
(assert
 (let (($x2087 (= x_months (- (+ (* 2022 12) 1) (+ (* 2000 12) 3)))))
 (and $x2087 (= 14 x_beta))))
(assert
 (let ((?x1602 (+ x_beta 1)))
 (let ((?x504 (div (- (+ (+ x_months 13) (+ (* 2000 12) 3)) 1) 12)))
 (let ((?x11 (+ (* 2000 12) 3)))
 (let ((?x1693 (+ (+ x_months 13) ?x11)))
 (let ((?x1609 (- ?x1693 (* ?x504 12))))
 (let ((?x2246 (ite (or (= ?x1609 4) (= ?x1609 6) (= ?x1609 9) (= ?x1609 11)) 30 31)))
 (let (($x597 (or (and (= (mod ?x504 4) 0) (and (distinct (mod ?x504 100) 0) true)) (= (mod ?x504 400) 0))))
 (let ((?x1942 (ite (= ?x1609 2) (ite $x597 29 28) ?x2246)))
 (let ((?x2864 (ite (> 1 ?x1602) 1 (ite (> ?x1602 ?x1942) ?x1942 ?x1602))))
 (let ((?x2315 (ite (> 1 ?x2864) 1 (ite (> ?x2864 ?x1942) ?x1942 ?x2864))))
 (let ((?x642 (ite (= 2 ?x1609) (ite $x597 31 31) (ite (= 1 ?x1609) (ite $x597 0 0) 0))))
 (let ((?x4101 (ite (= 4 ?x1609) (ite $x597 91 90) (ite (= 3 ?x1609) (ite $x597 60 59) ?x642))))
 (let ((?x2355 (ite (= 6 ?x1609) (ite $x597 152 151) (ite (= 5 ?x1609) (ite $x597 121 120) ?x4101))))
 (let ((?x2050 (ite (= 8 ?x1609) (ite $x597 213 212) (ite (= 7 ?x1609) (ite $x597 182 181) ?x2355))))
 (let ((?x1364 (ite (= 10 ?x1609) (ite $x597 274 273) (ite (= 9 ?x1609) (ite $x597 244 243) ?x2050))))
 (let ((?x2997 (ite (= 12 ?x1609) (ite $x597 335 334) (ite (= 11 ?x1609) (ite $x597 305 304) ?x1364))))
 (let ((?x2751 (- (+ (* 365 (- ?x504 1)) (div (- ?x504 1) 4)) (div (- ?x504 1) 100))))
 (let ((?x1567 (- (+ (+ (+ ?x2751 (div (- ?x504 1) 400)) ?x2997) (- ?x2315 1)) 730179)))
 (let ((?x4104 (+ (+ ?x1567 40) 730179)))
 (let ((?x3447 (mod ?x4104 146097)))
 (let ((?x1821 (div ?x3447 36524)))
 (let ((?x1625 (ite (<= 4 ?x1821) 3 ?x1821)))
 (let ((?x2192 (- ?x3447 (* ?x1625 36524))))
 (let ((?x2788 (mod ?x2192 1461)))
 (let ((?x1371 (div ?x2788 365)))
 (let ((?x3822 (ite (<= 4 ?x1371) 3 ?x1371)))
 (let ((?x1279 (+ (+ (* (div ?x4104 146097) 400) (* ?x1625 100)) (* (div ?x2192 1461) 4))))
 (let ((?x2569 (+ (+ ?x1279 ?x3822) 1)))
 (let (($x3072 (or (and (= (mod ?x2569 4) 0) (and (distinct (mod ?x2569 100) 0) true)) (= (mod ?x2569 400) 0))))
 (let ((?x873 (- ?x2788 (* ?x3822 365))))
 (let ((?x1932 (ite $x3072 31 31)))
 (let (($x4112 (>= ?x873 ?x1932)))
 (let ((?x2946 (ite $x4112 (+ (- ?x873 ?x1932) 1) (+ (- ?x873 (ite $x3072 0 0)) 1))))
 (let ((?x3883 (ite $x3072 60 59)))
 (let (($x3673 (>= ?x873 ?x3883)))
 (let ((?x256 (ite $x3072 91 90)))
 (let (($x1738 (>= ?x873 ?x256)))
 (let ((?x1473 (ite $x1738 (+ (- ?x873 ?x256) 1) (ite $x3673 (+ (- ?x873 ?x3883) 1) ?x2946))))
 (let ((?x3240 (ite $x3072 121 120)))
 (let (($x2889 (>= ?x873 ?x3240)))
 (let ((?x3275 (ite $x3072 152 151)))
 (let (($x3912 (>= ?x873 ?x3275)))
 (let ((?x2076 (ite $x3912 (+ (- ?x873 ?x3275) 1) (ite $x2889 (+ (- ?x873 ?x3240) 1) ?x1473))))
 (let ((?x4111 (ite $x3072 182 181)))
 (let (($x2166 (>= ?x873 ?x4111)))
 (let ((?x1895 (ite $x3072 213 212)))
 (let (($x4110 (>= ?x873 ?x1895)))
 (let ((?x3859 (ite $x4110 (+ (- ?x873 ?x1895) 1) (ite $x2166 (+ (- ?x873 ?x4111) 1) ?x2076))))
 (let ((?x4100 (ite $x3072 244 243)))
 (let (($x2618 (>= ?x873 ?x4100)))
 (let ((?x2857 (ite $x3072 274 273)))
 (let (($x2263 (>= ?x873 ?x2857)))
 (let ((?x3267 (ite $x2263 (+ (- ?x873 ?x2857) 1) (ite $x2618 (+ (- ?x873 ?x4100) 1) ?x3859))))
 (let ((?x2601 (ite $x3072 305 304)))
 (let (($x1242 (>= ?x873 ?x2601)))
 (let ((?x3749 (ite $x3072 335 334)))
 (let (($x1331 (>= ?x873 ?x3749)))
 (let ((?x2404 (ite $x1331 (+ (- ?x873 ?x3749) 1) (ite $x1242 (+ (- ?x873 ?x2601) 1) ?x3267))))
 (let (($x2970 (= 40 0)))
 (let ((?x1224 (ite $x2889 5 (ite $x1738 4 (ite $x3673 3 (ite $x4112 2 1))))))
 (let ((?x1452 (ite $x2618 9 (ite $x4110 8 (ite $x2166 7 (ite $x3912 6 ?x1224))))))
 (let ((?x1961 (ite $x1331 12 (ite $x1242 11 (ite $x2263 10 ?x1452)))))
 (let (($x2323 (= y_months (- (+ (* (ite $x2970 ?x504 ?x2569) 12) (ite $x2970 ?x1609 ?x1961)) ?x11))))
 (and $x2323 (= y_beta (- (ite $x2970 ?x2315 ?x2404) 1)))))))))))))))))))))))))))))))))))))))))))))))))))))))))))))))))))
(assert
 (let (($x1311 (= y_months (- (+ (* 2023 12) 2) (+ (* 2000 12) 3)))))
(not (and $x1311 (= 23 y_beta)))))
(check-sat)
